Version identifier: 12.10.0.0 | 2019-11-26 | 843d4de
CPXPARAM_WorkMem                                 28672
Tried aggregator 2 times.
Aggregator did 30 substitutions.
Reduced MIP has 103 rows, 120 columns, and 462 nonzeros.
Reduced MIP has 120 binaries, 0 generals, 0 SOSs, and 0 indicators.
Presolve time = 0,00 sec. (0,44 ticks)
Found incumbent of value 546,000000 after 0,00 sec. (0,72 ticks)
Probing time = 0,00 sec. (0,16 ticks)
Tried aggregator 1 time.
Detecting symmetries...
MIP Presolve eliminated 30 rows and 0 columns.
MIP Presolve added 60 rows and 0 columns.
Reduced MIP has 133 rows, 120 columns, and 492 nonzeros.
Reduced MIP has 120 binaries, 0 generals, 0 SOSs, and 0 indicators.
Presolve time = 0,00 sec. (0,58 ticks)
Probing time = 0,00 sec. (0,15 ticks)
Clique table members: 322.
MIP emphasis: balance optimality and feasibility.
MIP search method: dynamic search.
Parallel mode: deterministic, using up to 16 threads.
Root relaxation solution time = 0,00 sec. (0,34 ticks)

        Nodes                                         Cuts/
   Node  Left     Objective  IInf  Best Integer    Best Bound    ItCnt     Gap

*     0+    0                          546,0000        0,0000           100,00%
*     0+    0                          309,0000        0,0000           100,00%
*     0+    0                          246,0000        0,0000           100,00%
      0     0      182,0000    76      246,0000      182,0000       49   26,02%
      0     0      182,0000    76      246,0000      Cuts: 90       94   26,02%
      0     0      182,0000    76      246,0000      Cuts: 52      117   26,02%
      0     0      182,0000    76      246,0000      Cuts: 84      130   26,02%
      0     2      182,0000    29      246,0000      211,2000      130   14,15%
Elapsed time = 0,05 sec. (13,58 ticks, tree = 0,02 MB, solutions = 3)

Clique cuts applied:  9
Cover cuts applied:  22
Implied bound cuts applied:  9
Zero-half cuts applied:  10

Root node processing (before b&c):
  Real time             =    0,05 sec. (13,50 ticks)
Parallel b&c, 16 threads:
  Real time             =    0,13 sec. (8,54 ticks)
  Sync time (average)   =    0,11 sec.
  Wait time (average)   =    0,00 sec.
                          ------------
Total (root+branch&cut) =    0,17 sec. (22,04 ticks)
